<?xml version = "1.0" standalone="yes"?>
<!-- This file has been generated by DOcplex version 2.23.222  -->
<CPLEXSolution version="1.0">
 <header
   problemName="CVRP"
   objectiveValue="14485"
  />
 <variables>
  <variable name="x_0_1" index="0" value="1.00000"/>
  <variable name="x_0_3" index="2" value="1.00000"/>
  <variable name="x_0_4" index="3" value="1.00000"/>
  <variable name="x_0_5" index="4" value="1.00000"/>
  <variable name="x_0_9" index="8" value="1.00000"/>
  <variable name="x_0_11" index="10" value="1.00000"/>
  <variable name="x_0_14" index="13" value="1.00000"/>
  <variable name="x_0_19" index="18" value="1.00000"/>
  <variable name="x_0_20" index="19" value="1.00000"/>
  <variable name="x_1_0" index="20" value="1.00000"/>
  <variable name="x_2_12" index="51" value="1.00000"/>
  <variable name="x_3_0" index="60" value="1.00000"/>
  <variable name="x_4_15" index="94" value="1.00000"/>
  <variable name="x_5_8" index="107" value="1.00000"/>
  <variable name="x_6_18" index="137" value="1.00000"/>
  <variable name="x_7_0" index="140" value="1.00000"/>
  <variable name="x_8_0" index="160" value="1.00000"/>
  <variable name="x_9_17" index="196" value="1.00000"/>
  <variable name="x_10_0" index="200" value="1.00000"/>
  <variable name="x_11_2" index="222" value="1.00000"/>
  <variable name="x_12_7" index="247" value="1.00000"/>
  <variable name="x_13_0" index="260" value="1.00000"/>
  <variable name="x_14_10" index="290" value="1.00000"/>
  <variable name="x_15_13" index="313" value="1.00000"/>
  <variable name="x_16_0" index="320" value="1.00000"/>
  <variable name="x_17_16" index="356" value="1.00000"/>
  <variable name="x_18_0" index="360" value="1.00000"/>
  <variable name="x_19_0" index="380" value="1.00000"/>
  <variable name="x_20_6" index="406" value="1.00000"/>
  <variable name="u_1" index="420" value="20.00000"/>
  <variable name="u_2" index="421" value="15.00000"/>
  <variable name="u_3" index="422" value="23.00000"/>
  <variable name="u_4" index="423" value="3.00000"/>
  <variable name="u_5" index="424" value="16.00000"/>
  <variable name="u_6" index="425" value="16.00000"/>
  <variable name="u_7" index="426" value="24.00000"/>
  <variable name="u_8" index="427" value="23.00000"/>
  <variable name="u_9" index="428" value="7.00000"/>
  <variable name="u_10" index="429" value="24.00000"/>
  <variable name="u_11" index="430" value="9.00000"/>
  <variable name="u_12" index="431" value="18.00000"/>
  <variable name="u_13" index="432" value="24.00000"/>
  <variable name="u_14" index="433" value="16.00000"/>
  <variable name="u_15" index="434" value="12.00000"/>
  <variable name="u_16" index="435" value="24.00000"/>
  <variable name="u_17" index="436" value="18.00000"/>
  <variable name="u_18" index="437" value="24.00000"/>
  <variable name="u_19" index="438" value="24.00000"/>
  <variable name="u_20" index="439" value="1.00000"/>
 </variables>
</CPLEXSolution>
